120
150
45
50
53
41
53
53
50
49
45
43
46
53
53
50
45
50
47
53
44
53
51
51
60
46
59
42
51
41
53
52
41
58
45
47
40
41
40
40
40
40
51
49
50
49
51
50
40
40
40
58
46
46
40
40
40
56
51
43
51
44
55
40
40
40
56
48
46
47
44
59
40
40
40
54
49
47
43
50
57
40
40
40
53
53
44
40
53
59
59
56
50
44
40
56
55
46
49
40
40
40
52
48
50
40
51
60
60
53
50
47
41
50
60
45
45
42
56
54
41
55
